S = 4;
start = [|4,0,9,0,0,0,0,0,0,0,0,0,0,0,15,2|
15,2,7,0,4,11,8,0,14,0,1,9,13,3,0,6|
0,0,0,0,1,0,6,0,13,4,15,0,5,0,12,9|
0,10,13,0,0,15,0,0,0,0,16,0,0,0,14,0|
5,11,16,9,0,0,12,0,0,10,0,0,0,0,0,8|
3,12,0,0,0,0,0,9,5,0,0,1,0,0,0,0|
0,0,0,0,0,6,4,5,0,0,11,7,0,0,0,0|
10,1,4,0,0,0,0,11,0,6,12,3,9,0,0,16|
0,0,0,11,0,0,15,0,2,14,3,0,12,0,1,13|
0,0,0,0,14,12,0,0,0,0,0,0,0,0,0,0|
0,0,12,0,5,9,0,6,0,0,0,0,0,2,10,0|
0,15,14,0,0,0,0,1,0,0,0,5,0,0,0,0|
0,7,0,0,0,0,0,2,9,0,0,16,0,6,0,10|
6,9,0,0,0,0,0,0,0,0,0,0,0,0,0,0|
0,0,0,0,0,0,0,0,0,0,6,0,16,0,11,0|
0,0,2,0,6,0,7,0,0,0,0,14,0,9,5,12|];